(set-logic QF_S)
(declare-fun var0 () String)
(declare-fun var1 () String)
(declare-fun var2 () String)
(assert (= var0 (str.++ "R*x^C" (str.++ var1 ""))))
(assert (= var0 (str.++ "\\NdWH" (str.++ var2 ""))))
(check-sat)